# Solution for model es60fst01
# Objective value = 56
x#1 1
x#2 1
x#3 0
x#4 0
x#5 1
x#6 1
x#7 1
x#8 1
x#9 0
x#10 1
x#11 1
x#12 0
x#13 1
x#14 0
x#15 0
x#16 0
x#17 1
x#18 0
x#19 0
x#20 1
x#21 1
x#22 0
x#23 0
x#24 1
x#25 0
x#26 0
x#27 1
x#28 0
x#29 1
x#30 0
x#31 0
x#32 1
x#33 0
x#34 1
x#35 0
x#36 0
x#37 1
x#38 1
x#39 0
x#40 0
x#41 0
x#42 1
x#43 1
x#44 1
x#45 0
x#46 1
x#47 1
x#48 0
x#49 0
x#50 0
x#51 0
x#52 0
x#53 0
x#54 1
x#55 1
x#56 0
x#57 1
x#58 0
x#59 1
x#60 1
x#61 0
x#62 1
x#63 1
x#64 0
x#65 0
x#66 1
x#67 0
x#68 0
x#69 1
x#70 0
x#71 1
x#72 0
x#73 1
x#74 1
x#75 0
x#76 0
x#77 0
x#78 0
x#79 1
x#80 0
x#81 1
x#82 0
x#83 1
x#84 1
x#85 0
x#86 0
x#87 1
x#88 0
x#89 0
x#90 1
x#91 1
x#92 0
x#93 0
x#94 0
x#95 0
x#96 1
x#97 0
x#98 1
x#99 1
x#100 1
x#101 1
x#102 0
x#103 0
x#104 0
x#105 0
x#106 1
x#107 1
x#108 0
x#109 0
x#110 1
x#111 0
x#112 1
x#113 0
x#114 0
x#115 0
x#116 1
x#117 0
x#118 0
x#119 0
x#120 1
x#121 1
x#122 1
x#123 0
